attachment/milp/2-tiling/tiling-large.dat
data;

param Width := 30;
param Height := 30;

end;
